&CONTROL
  pseudo_dir = '../HGH'
  etot_conv_thr = 1.0d-6
/

&SYSTEM
  ibrav = 1
  nat = 2
  ntyp = 2
  A = 10.d0
  B = 11.d0
  C = 11.2d0
  nr1 = 45
  nr2 = 45
  nr3 = 45
/

&ELECTRONS
  KS_Solve_Method = 'Emin_pcg'
  cg_beta = 1
  electron_maxstep = 150
  mixing_beta = 0.1d0
  diagonalization = 'davidson_qe'
/

ATOMIC_SPECIES
Li  3.0  Li_sc.hgh
H   1.0  H.hgh

ATOMIC_POSITIONS angstrom
Li  5.0  5.0  5.0
H   6.5  5.0  5.0



