&CONTROL
  pseudo_dir = '../../HGH'
  etot_conv_thr = 1.0d-6
/

&SYSTEM
  ibrav = 8
  nat = 3
  ntyp = 2
  A = 8.4668d0
  B = 8.4668d0
  C = 8.4668d0
  nr1 = 45
  nr2 = 45
  nr3 = 45
/

&ELECTRONS
  KS_Solve = 'scf'
  cg_beta = 'DY'
  electron_maxstep = 150
  mixing_beta = 0.5
  diagonalization = 'davidson_qe'
/

ATOMIC_SPECIES
Mo   1.0  Mo.hgh
S    1.0  S.hgh

ATOMIC_POSITIONS angstrom
Mo     4.23341768       4.23341768       4.23341768
S      4.23341768       4.23341768       6.45911768
S      4.23341768       4.23341768       2.00771768
