&CONTROL
  pseudo_dir = '../../pseudopotentials/pade_gth'
  etot_conv_thr = 1.0d-6
/

&SYSTEM
  ibrav = 8
  nat = 1
  ntyp = 1
  A = 8.46683536902
  B = 8.46683536902
  C = 8.46683536902
  nr1 = 45
  nr2 = 45
  nr3 = 45
/

&ELECTRONS
  KS_Solve = 'Emin_pcg'
  cg_beta = 'PR'
  electron_maxstep = 150
  mixing_beta = 0.5
  diagonalization = 'LOBPCG'
/

ATOMIC_SPECIES
Pd   1.0  Pd-q10.gth

ATOMIC_POSITIONS angstrom
Pd   4.23341768       4.23341768       4.23341768

