&CONTROL
  pseudo_dir = '../../HGH'
  etot_conv_thr = 1.0d-6
/

&SYSTEM
  ibrav = 8
  nat = 2
  ntyp = 2
  A = 8.46683536902
  B = 8.46683536902
  C = 8.46683536902
  nr1 = 45
  nr2 = 45
  nr3 = 45
/

&ELECTRONS
  KS_Solve = 'Emin_pcg'
  cg_beta = 'PR'
  electron_maxstep = 150
  mixing_beta = 0.5
  diagonalization = 'LOBPCG'
  startingwfc = 'atomic'
/

ATOMIC_SPECIES
Li   3.0  Li_sc.hgh
H    1.0  H.hgh

ATOMIC_POSITIONS angstrom
Li      0.0       0.0       5.04089768
H       0.0       0.0       3.42593768

