&CONTROL
  pseudo_dir = '../../HGH'
  etot_conv_thr = 1.0d-6
/

&SYSTEM
  ibrav = 8
  nat = 4
  ntyp = 2
  A = 8.4668d0
  B = 8.4668d0
  C = 8.4668d0
  nr1 = 45
  nr2 = 45
  nr3 = 45
/

&ELECTRONS
  KS_Solve = 'scf'
  cg_beta = 'PR'
  electron_maxstep = 150
  mixing_beta = 0.1
  diagonalization = 'LOBPCG'
/

ATOMIC_SPECIES
H    1.0  H.hgh
N   14.0  N.hgh

ATOMIC_POSITIONS angstrom
N      4.09146768       4.32366768       3.89321768        7 
H      3.64976768       4.61426768       4.76431768        1 
H      4.81706768       5.01326768       3.70251768        1 
H      4.57896768       3.45356768       4.10211768        1

