&CONTROL
  pseudo_dir = '../../pseudopotentials/pade_gth' 
  etot_conv_thr = 1.d-6
/

&SYSTEM
  ibrav = 8
  A = 4.02710
  B = 4.02710
  C = 4.02710
  nat = 8
  ntyp = 2
  nr1 = 45
  nr2 = 45
  nr3 = 45
/

&ELECTRONS
  diagonalization = 'LOBPCG'
/

CELL_PARAMETERS {angstrom}
 12.081299999999999   0.000000000000000   0.000000000000000 
  0.000000000000000  12.081299999999999   0.000000000000000 
  0.000000000000000   0.000000000000000  12.081299999999999 

ATOMIC_SPECIES
   H    1.00750  H-q1.gth
  Li    6.96750  Li-q3.gth

ATOMIC_POSITIONS {angstrom}
Li   0.000000000000000   0.000000000000000   0.000000000000000 
Li   0.000000000000000   2.013550000000000   2.013550000000000 
Li   2.013550000000000   0.000000000000000   2.013550000000000 
Li   2.013550000000000   2.013550000000000   0.000000000000000 
 H   2.013550000000000   2.013550000000000   2.013550000000000 
 H   2.013550000000000   0.000000000000000   0.000000000000000 
 H   0.000000000000000   2.013550000000000   0.000000000000000 
 H   0.000000000000000   0.000000000000000   2.013550000000000 


