#************************************************************************************
#*                   Generated by cif2cell 1.2.7 2017-07-26 16:43                   *
#*  T. Bjorkman, Comp. Phys. Commun. 182, 1183-1186 (2011). Please cite generously. *
#*                                                                                  *
#*                                   Li H   (LiH)                                   *
#*                Wyckoff R W G, Crystal Structures 1, 85-237 (1963)                *
#************************************************************************************

&SYSTEM
  ibrav = 0
  A =    4.02710
  nat = 8
  ntyp = 2
/
CELL_PARAMETERS {angstrom}
  4.027100000000000   0.000000000000000   0.000000000000000 
  0.000000000000000   4.027100000000000   0.000000000000000 
  0.000000000000000   0.000000000000000   4.027100000000000 
ATOMIC_SPECIES
   H    1.00750   H_PSEUDO
  Li    6.96750  Li_PSEUDO
ATOMIC_POSITIONS {angstrom}
Li   0.000000000000000   0.000000000000000   0.000000000000000 
Li   0.000000000000000   2.013550000000000   2.013550000000000 
Li   2.013550000000000   0.000000000000000   2.013550000000000 
Li   2.013550000000000   2.013550000000000   0.000000000000000 
 H   2.013550000000000   2.013550000000000   2.013550000000000 
 H   2.013550000000000   0.000000000000000   0.000000000000000 
 H   0.000000000000000   2.013550000000000   0.000000000000000 
 H   0.000000000000000   0.000000000000000   2.013550000000000 

# k-space resolution ~0.2/A.
K_POINTS automatic
8 8 8  0 0 0
