&CONTROL
  pseudo_dir = '../../pseudopotentials/pade_gth'
  etot_conv_thr = 1.0d-6
/

&SYSTEM
  ibrav = 8
  nat = 2
  ntyp = 1
  A = 8.4668d0
  B = 8.4668d0
  C = 8.4668d0
  nr1 = 45
  nr2 = 45
  nr3 = 45
/

&ELECTRONS
  KS_Solve = 'Emin_pcg'
  cg_beta = 'PR'
  electron_maxstep = 150
  mixing_beta = 0.1
  diagonalization = 'LOBPCG'
/

ATOMIC_SPECIES
O    1.0  O-q6.gth

ATOMIC_POSITIONS angstrom
O      4.23341768       4.23341768       4.84067768
O      4.23341768       4.23341768       3.62615768



