&CONTROL
  pseudo_dir = '../../pseudopotentials/pade_gth' 
  etot_conv_thr = 1.0d-6
/

&SYSTEM
  ibrav = 8
  nat = 2
  ntyp = 1
  A = 8.4668d0
  B = 8.4668d0
  C = 8.4668d0
  nr1 = 54
  nr2 = 54
  nr3 = 54
  assume_isolated = 'sinc'
/

&ELECTRONS
  KS_Solve = 'scf'
  cg_beta = 'PR'
  electron_maxstep = 150
  mixing_beta = 0.1
  diagonalization = 'LOBPCG'
/

ATOMIC_SPECIES
O    1.0  O-q6.gth

ATOMIC_POSITIONS bohr
O       1.15  0.0  0.0
O      -1.15  0.0  0.0

