&CONTROL
  pseudo_dir = '../../HGH'
  etot_conv_thr = 1.0d-6
/

&SYSTEM
  ibrav = 8
  nat = 1
  ntyp = 1
  A = 8.4668d0
  B = 8.4668d0
  C = 8.4668d0
  nr1 = 15
  nr2 = 15
  nr3 = 15
/

&ELECTRONS
  KS_Solve = 'Emin_pcg'
  cg_beta = 'PR'
  electron_maxstep = 150
  mixing_beta = 0.5
  diagonalization = 'LOBPCG'
/

ATOMIC_SPECIES
H   1.0  H.hgh

ATOMIC_POSITIONS angstrom
H   0.0  0.0  0.0



