&CONTROL
  pseudo_dir = '../../HGH'
  etot_conv_thr = 1.0d-6
/

&SYSTEM
  ibrav = 8
  nat = 2
  ntyp = 2
  A = 8.46683536902
  B = 8.46683536902
  C = 8.46683536902
  nr1 = 55
  nr2 = 55
  nr3 = 55
/

&ELECTRONS
  KS_Solve = 'Emin_pcg'
  cg_beta = 'PR'
  electron_maxstep = 150
  mixing_beta = 0.5
  diagonalization = 'LOBPCG'
/

ATOMIC_SPECIES
Li   3.0  Li.hgh
H    1.0  H.hgh

ATOMIC_POSITIONS angstrom
Li      4.23341768       4.23341768       5.04089768
H       4.23341768       4.23341768       3.42593768

