&CONTROL
  pseudo_dir = '../../HGH'
  etot_conv_thr = 1.0d-6
/

&SYSTEM
  ibrav = 8
  nat = 2
  ntyp = 1
  A = 8.4668d0
  B = 8.4668d0
  C = 8.4668d0
  nr1 = 45
  nr2 = 45
  nr3 = 45
/

&ELECTRONS
  KS_Solve = 'scf'
  cg_beta = 'DY'
  electron_maxstep = 150
  mixing_beta = 0.1
  diagonalization = 'LOBPCG'
/

ATOMIC_SPECIES
Al    1.0  Al.hgh

ATOMIC_POSITIONS angstrom
Al   0.0  0.0  0.0
Al   1.5  0.0  0.0



