&CONTROL
  pseudo_dir = '../../pseudopotentials/pbe_gth'
  etot_conv_thr = 1.0d-6
/

&SYSTEM
  ibrav = 8
  nat = 1
  ntyp = 1
  A = 8.4668d0
  B = 8.4668d0
  C = 8.4668d0
  nr1 = 55
  nr2 = 55
  nr3 = 55
  input_dft = 'PBE'
/

&ELECTRONS
  KS_Solve = 'Emin_pcg'
  cg_beta = 'PR'
  electron_maxstep = 150
  mixing_beta = 0.1
  diagonalization = 'LOBPCG'
/

ATOMIC_SPECIES
Be   4.0  Be-q4.gth

ATOMIC_POSITIONS bohr
Be   8.0  8.0  8.0



