&CONTROL
  pseudo_dir = '../../HGH'
  etot_conv_thr = 1.0d-6
/

&SYSTEM
  ibrav = 8
  nat = 135
  ntyp = 1
  A = 15.0
  B = 15.0
  C = 15.0
  nr1 = 54
  nr2 = 54
  nr3 = 54
  assume_isolated = 'sinc'
/

&ELECTRONS
  KS_Solve = 'Emin-pcg'
  cg_beta = 'PR'
  electron_maxstep = 150
  mixing_beta = 0.1
  diagonalization = 'LOBPCG'
/

ATOMIC_SPECIES
Li    1.0  Li.hgh

ATOMIC_POSITIONS angstrom
Li     -4.50000000      -3.00000000      -1.50000000
Li     -4.50000000      -1.50000000      -3.00000000
Li     -4.50000000      -3.00000000       1.50000000
Li     -4.50000000      -1.50000000       0.00000000
Li     -4.50000000      -1.50000000       3.00000000
Li     -4.50000000       0.00000000      -1.50000000
Li     -4.50000000       1.50000000      -3.00000000
Li     -4.50000000       0.00000000       1.50000000
Li     -4.50000000       1.50000000       0.00000000
Li     -4.50000000       1.50000000       3.00000000
Li     -4.50000000       3.00000000      -1.50000000
Li     -4.50000000       3.00000000       1.50000000
Li     -3.00000000      -4.50000000      -1.50000000
Li     -1.50000000      -4.50000000      -3.00000000
Li     -3.00000000      -4.50000000       1.50000000
Li     -1.50000000      -4.50000000       0.00000000
Li     -1.50000000      -4.50000000       3.00000000
Li     -3.00000000      -1.50000000      -4.50000000
Li     -1.50000000      -3.00000000      -4.50000000
Li     -3.00000000      -3.00000000      -3.00000000
Li     -3.00000000      -1.50000000      -1.50000000
Li     -1.50000000      -3.00000000      -1.50000000
Li     -1.50000000      -1.50000000      -3.00000000
Li     -3.00000000      -3.00000000       0.00000000
Li     -3.00000000      -1.50000000       1.50000000
Li     -1.50000000      -3.00000000       1.50000000
Li     -1.50000000      -1.50000000       0.00000000
Li     -3.00000000      -3.00000000       3.00000000
Li     -3.00000000      -1.50000000       4.50000000
Li     -1.50000000      -3.00000000       4.50000000
Li     -1.50000000      -1.50000000       3.00000000
Li     -3.00000000       1.50000000      -4.50000000
Li     -1.50000000       0.00000000      -4.50000000
Li     -3.00000000       0.00000000      -3.00000000
Li     -3.00000000       1.50000000      -1.50000000
Li     -1.50000000       0.00000000      -1.50000000
Li     -1.50000000       1.50000000      -3.00000000
Li     -3.00000000       0.00000000       0.00000000
Li     -3.00000000       1.50000000       1.50000000
Li     -1.50000000       0.00000000       1.50000000
Li     -1.50000000       1.50000000       0.00000000
Li     -3.00000000       0.00000000       3.00000000
Li     -3.00000000       1.50000000       4.50000000
Li     -1.50000000       0.00000000       4.50000000
Li     -1.50000000       1.50000000       3.00000000
Li     -1.50000000       3.00000000      -4.50000000
Li     -3.00000000       3.00000000      -3.00000000
Li     -3.00000000       4.50000000      -1.50000000
Li     -1.50000000       3.00000000      -1.50000000
Li     -1.50000000       4.50000000      -3.00000000
Li     -3.00000000       3.00000000       0.00000000
Li     -3.00000000       4.50000000       1.50000000
Li     -1.50000000       3.00000000       1.50000000
Li     -1.50000000       4.50000000       0.00000000
Li     -3.00000000       3.00000000       3.00000000
Li     -1.50000000       3.00000000       4.50000000
Li     -1.50000000       4.50000000       3.00000000
Li      0.00000000      -4.50000000      -1.50000000
Li      1.50000000      -4.50000000      -3.00000000
Li      0.00000000      -4.50000000       1.50000000
Li      1.50000000      -4.50000000       0.00000000
Li      1.50000000      -4.50000000       3.00000000
Li      0.00000000      -1.50000000      -4.50000000
Li      1.50000000      -3.00000000      -4.50000000
Li      0.00000000      -3.00000000      -3.00000000
Li      0.00000000      -1.50000000      -1.50000000
Li      1.50000000      -3.00000000      -1.50000000
Li      1.50000000      -1.50000000      -3.00000000
Li      0.00000000      -3.00000000       0.00000000
Li      0.00000000      -1.50000000       1.50000000
Li      1.50000000      -3.00000000       1.50000000
Li      1.50000000      -1.50000000       0.00000000
Li      0.00000000      -3.00000000       3.00000000
Li      0.00000000      -1.50000000       4.50000000
Li      1.50000000      -3.00000000       4.50000000
Li      1.50000000      -1.50000000       3.00000000
Li      0.00000000       1.50000000      -4.50000000
Li      1.50000000       0.00000000      -4.50000000
Li      0.00000000       0.00000000      -3.00000000
Li      0.00000000       1.50000000      -1.50000000
Li      1.50000000       0.00000000      -1.50000000
Li      1.50000000       1.50000000      -3.00000000
Li      0.00000000       0.00000000       0.00000000
Li      0.00000000       1.50000000       1.50000000
Li      1.50000000       0.00000000       1.50000000
Li      1.50000000       1.50000000       0.00000000
Li      0.00000000       0.00000000       3.00000000
Li      0.00000000       1.50000000       4.50000000
Li      1.50000000       0.00000000       4.50000000
Li      1.50000000       1.50000000       3.00000000
Li      1.50000000       3.00000000      -4.50000000
Li      0.00000000       3.00000000      -3.00000000
Li      0.00000000       4.50000000      -1.50000000
Li      1.50000000       3.00000000      -1.50000000
Li      1.50000000       4.50000000      -3.00000000
Li      0.00000000       3.00000000       0.00000000
Li      0.00000000       4.50000000       1.50000000
Li      1.50000000       3.00000000       1.50000000
Li      1.50000000       4.50000000       0.00000000
Li      0.00000000       3.00000000       3.00000000
Li      1.50000000       3.00000000       4.50000000
Li      1.50000000       4.50000000       3.00000000
Li      3.00000000      -4.50000000      -1.50000000
Li      3.00000000      -4.50000000       1.50000000
Li      3.00000000      -1.50000000      -4.50000000
Li      3.00000000      -3.00000000      -3.00000000
Li      3.00000000      -1.50000000      -1.50000000
Li      4.50000000      -3.00000000      -1.50000000
Li      4.50000000      -1.50000000      -3.00000000
Li      3.00000000      -3.00000000       0.00000000
Li      3.00000000      -1.50000000       1.50000000
Li      4.50000000      -3.00000000       1.50000000
Li      4.50000000      -1.50000000       0.00000000
Li      3.00000000      -3.00000000       3.00000000
Li      3.00000000      -1.50000000       4.50000000
Li      4.50000000      -1.50000000       3.00000000
Li      3.00000000       1.50000000      -4.50000000
Li      3.00000000       0.00000000      -3.00000000
Li      3.00000000       1.50000000      -1.50000000
Li      4.50000000       0.00000000      -1.50000000
Li      4.50000000       1.50000000      -3.00000000
Li      3.00000000       0.00000000       0.00000000
Li      3.00000000       1.50000000       1.50000000
Li      4.50000000       0.00000000       1.50000000
Li      4.50000000       1.50000000       0.00000000
Li      3.00000000       0.00000000       3.00000000
Li      3.00000000       1.50000000       4.50000000
Li      4.50000000       1.50000000       3.00000000
Li      3.00000000       3.00000000      -3.00000000
Li      3.00000000       4.50000000      -1.50000000
Li      4.50000000       3.00000000      -1.50000000
Li      3.00000000       3.00000000       0.00000000
Li      3.00000000       4.50000000       1.50000000
Li      4.50000000       3.00000000       1.50000000
Li      3.00000000       3.00000000       3.00000000

