&CONTROL
  pseudo_dir = './'
  etot_conv_thr = 1.0d-6
/

&SYSTEM
  ibrav = 8
  nat = 1
  ntyp = 1
  A = 8.4668d0
  B = 8.4668d0
  C = 8.4668d0
  nr1 = 45
  nr2 = 45
  nr3 = 45
  input_dft = 'PBE'
/

&ELECTRONS
  KS_Solve = 'Emin_pcg'
  cg_beta = 'DY'
  electron_maxstep = 150
  mixing_beta = 0.1
  diagonalization = 'LOBPCG'
/

ATOMIC_SPECIES
Zr   1.0  Zr.hgh

ATOMIC_POSITIONS bohr
Zr   8.0  8.0  8.0



