&CONTROL
  pseudo_dir = '../../pseudopotentials/pade_gth'
  etot_conv_thr = 1.0d-6
/

&SYSTEM
  ibrav = 8
  nat = 40
  ntyp = 1
  A = 12.71200023028590
  B = 12.71200023028590
  C = 12.71200023028590
  nr1 = 45
  nr2 = 45
  nr3 = 45
/

&ELECTRONS
  KS_Solve = 'Emin_pcg'
  cg_beta = 'PR'
  electron_maxstep = 150
  mixing_beta = 0.5
  diagonalization = 'LOBPCG'
/

ATOMIC_SPECIES
C   12.0  C-q4.gth

ATOMIC_POSITIONS angstrom
C     7.71200023028590     6.35600011514295     0.00000000000000
C     7.03400017271442     7.53033066239137     0.00000000000000
C     6.35600011514295     7.71200023028590     1.22975607337390
C     5.18166956789453     7.03400017271442     1.22975607337390
C     5.00000000000000     6.35600011514295     0.00000000000000
C     5.67800005757147     5.18166956789453     2.45951214674781
C     6.35600011514295     5.00000000000000     1.22975607337390
C     7.53033066239137     5.67800005757147     1.22975607337390
C     7.71200023028590     6.35600011514295     2.45951214674781
C     7.03400017271442     7.53033066239137     2.45951214674781
C     6.35600011514295     7.71200023028590     3.68926822012171
C     5.18166956789453     7.03400017271442     3.68926822012171
C     5.00000000000000     6.35600011514295     2.45951214674781
C     5.67800005757147     5.18166956789453     4.91902429349561
C     6.35600011514295     5.00000000000000     3.68926822012171
C     7.53033066239137     5.67800005757147     3.68926822012171
C     7.71200023028590     6.35600011514295     4.91902429349561
C     7.03400017271442     7.53033066239137     4.91902429349561
C     6.35600011514295     7.71200023028590     6.14878036686951
C     5.18166956789453     7.03400017271442     6.14878036686951
C     5.00000000000000     6.35600011514295     4.91902429349561
C     5.67800005757147     5.18166956789453     7.37853644024342
C     6.35600011514295     5.00000000000000     6.14878036686951
C     7.53033066239137     5.67800005757147     6.14878036686951
C     7.71200023028590     6.35600011514295     7.37853644024342
C     7.03400017271442     7.53033066239137     7.37853644024342
C     6.35600011514295     7.71200023028590     8.60829251361732
C     5.18166956789453     7.03400017271442     8.60829251361732
C     5.00000000000000     6.35600011514295     7.37853644024342
C     5.67800005757147     5.18166956789453     9.83804858699122
C     6.35600011514295     5.00000000000000     8.60829251361732
C     7.53033066239137     5.67800005757147     8.60829251361732
C     7.71200023028590     6.35600011514295     9.83804858699122
C     7.03400017271442     7.53033066239137     9.83804858699122
C     6.35600011514295     7.71200023028590    11.06780466036513
C     5.18166956789453     7.03400017271442    11.06780466036513
C     5.00000000000000     6.35600011514295     9.83804858699122
C     5.67800005757147     5.18166956789453    12.29756073373903
C     6.35600011514295     5.00000000000000    11.06780466036513
C     7.53033066239137     5.67800005757147    11.06780466036513
