&CONTROL
  pseudo_dir = '../../pseudopotentials/pade_gth'
  etot_conv_thr = 1.0d-6
/

&SYSTEM
  ibrav = 8
  nat = 2
  ntyp = 1
  A = 8.46683536902
  B = 8.46683536902
  C = 8.46683536902
  nr1 = 55
  nr2 = 55
  nr3 = 55
  assume_isolated = 'sinc'
/

&ELECTRONS
  KS_Solve = 'SCF'
  cg_beta = 'PR'
  electron_maxstep = 150
  mixing_beta = 0.5
  mixing_mode = 'linear-adaptive'
  diagonalization = 'LOBPCG'
  startingwfc = 'atomic'
/

ATOMIC_SPECIES
H   1.0  H-q1.gth

ATOMIC_POSITIONS bohr
H    -0.75  0.0  0.0
H     0.75  0.0  0.0

